p tw 20 53
0 1
0 2
0 11
0 10
0 3
0 15
0 14
0 7
0 8
0 4
1 3
1 6
1 7
1 18
1 19
2 5
2 11
2 13
2 10
2 16
2 9
2 8
3 13
3 5
3 15
3 12
3 7
4 5
4 10
4 9
5 12
6 9
6 8
6 17
6 15
6 11
7 8
7 12
7 19
7 9
8 12
8 11
9 17
9 12
10 18
11 14
11 17
12 18
14 15
14 16
14 17
15 18
17 19
